100
150
100
99
99
98
97
96
95
95
94
91
91
89
88
88
86
83
82
79
78
78
76
75
75
74
72
71
70
70
69
69
69
68
66
65
64
64
63
63
62
62
61
60
58
58
57
56
56
55
55
54
52
52
49
49
49
48
48
47
46
46
45
45
41
40
40
39
37
36
36
36
35
35
35
35
33
32
31
31
31
28
28
25
24
24
21
20
19
19
19
18
16
16
16
16
13
13
11
8
6
5
